NAME : pairopt
TYPE : ACVRP
DIMENSION : 5
EDGE_WEIGHT_TYPE : EXPLICIT
EDGE_WEIGHT_FORMAT : FULL_MATRIX
CAPACITY : 296
VEHICLES : 2
EDGE_WEIGHT_SECTION
100000 -100000 -100000 100000 100000 
100000 100000 1000000 -207 477 
100000 1000000 100000 1587 494 
0 0 0 100000 242 
0 0 0 242 100000 
DEMAND_SECTION
1 0
2 0
3 0
4 341
5 54
DEPOT_SECTION
1
EOF